259317.0
3125
0 2 3 5 8 11 12 13 16 17 19 20 21 23 25 27 28 29 31 32 34 36 38 39 40 42 44 46 48 49 50 51 52 53 55 56 57 58 59 63 69 71 72 73 74 75 77 78 82 83 85 86 87 90 92 93 94 95 97 98 99 100 101 102 103 105 109 110 111 115 116 118 120 123 124 125 128 129 130 131 132 133 134 135 136 137 138 139 140 141 142 144 145 146 147 148 149 150 153 154 155 156 157 159 164 165 167 168 169 171 175 176 177 178 179 180 181 183 184 186 187 188 190 191 192 193 195 196 198 199 